0 65.00 165.00
1 55.00 165.00
2 55.00 165.00
3 45.00 165.00
4 35.00 165.00
5 35.00 155.00
6 35.00 155.00
7 35.00 145.00
8 35.00 135.00
9 35.00 125.00
10 35.00 125.00
11 35.00 115.00
12 35.00 105.00
13 35.00 95.00
14 35.00 85.00
15 35.00 85.00
16 35.00 75.00
17 35.00 65.00
18 35.00 65.00
19 35.00 65.00
20 25.00 65.00
21 15.00 65.00
22 15.00 65.00
23 15.00 65.00
24 15.00 75.00
25 15.00 85.00
26 15.00 85.00
27 15.00 95.00
28 15.00 105.00
29 15.00 115.00
30 15.00 125.00
31 15.00 125.00
32 15.00 135.00
33 15.00 145.00
34 15.00 155.00
35 15.00 165.00
36 15.00 165.00
37 15.00 175.00
38 15.00 185.00
39 15.00 185.00
40 15.00 185.00
41 25.00 185.00
42 35.00 185.00
43 35.00 185.00
44 45.00 185.00
45 55.00 185.00
46 65.00 185.00
47 75.00 185.00
48 75.00 185.00
49 85.00 185.00
50 95.00 185.00
51 105.00 185.00
52 115.00 185.00
53 115.00 185.00
54 125.00 185.00
55 135.00 185.00
56 135.00 185.00
57 135.00 185.00
58 135.00 175.00
59 135.00 165.00
60 135.00 165.00
61 135.00 155.00
62 135.00 145.00
63 135.00 135.00
64 135.00 125.00
65 135.00 125.00
66 135.00 115.00
67 135.00 105.00
68 135.00 105.00
69 135.00 95.00
70 135.00 85.00
71 145.00 85.00
72 155.00 85.00
73 155.00 85.00
74 165.00 85.00
75 165.00 85.00
76 175.00 85.00
77 185.00 85.00
78 185.00 85.00
79 185.00 85.00
80 185.00 75.00
81 185.00 65.00
82 185.00 65.00
83 185.00 55.00
84 185.00 45.00
85 185.00 35.00
86 185.00 35.00
87 185.00 25.00
88 185.00 15.00
89 185.00 15.00
90 185.00 15.00
91 175.00 15.00
92 165.00 15.00
93 165.00 15.00
94 165.00 15.00
95 165.00 25.00
96 165.00 35.00
97 165.00 35.00
98 165.00 45.00
99 165.00 55.00
100 165.00 55.00
101 165.00 65.00
102 155.00 65.00
103 155.00 65.00
104 145.00 65.00
105 135.00 65.00
106 135.00 55.00
107 135.00 55.00
108 135.00 45.00
109 135.00 35.00
110 135.00 35.00
111 135.00 25.00
112 135.00 15.00
113 135.00 15.00
114 135.00 15.00
115 125.00 15.00
116 115.00 15.00
117 115.00 15.00
118 115.00 15.00
119 115.00 25.00
120 115.00 35.00
121 115.00 35.00
122 115.00 45.00
123 115.00 55.00
124 115.00 65.00
125 115.00 75.00
126 115.00 75.00
127 115.00 85.00
128 115.00 95.00
129 115.00 105.00
130 115.00 115.00
131 115.00 125.00
132 115.00 125.00
133 115.00 135.00
134 115.00 145.00
135 115.00 155.00
136 115.00 155.00
137 115.00 165.00
138 105.00 165.00
139 105.00 165.00
140 95.00 165.00
141 85.00 165.00
142 85.00 155.00
143 85.00 155.00
144 85.00 145.00
145 85.00 135.00
146 85.00 125.00
147 85.00 125.00
148 85.00 115.00
149 85.00 105.00
150 85.00 95.00
151 85.00 85.00
152 85.00 75.00
153 85.00 75.00
154 85.00 65.00
155 85.00 55.00
156 85.00 45.00
157 85.00 35.00
158 85.00 35.00
159 85.00 25.00
160 85.00 15.00
161 85.00 15.00
162 85.00 15.00
163 75.00 15.00
164 65.00 15.00
165 65.00 15.00
166 65.00 15.00
167 65.00 25.00
168 65.00 35.00
169 65.00 35.00
170 65.00 45.00
171 65.00 55.00
172 65.00 65.00
173 65.00 75.00
174 65.00 75.00
175 65.00 85.00
176 65.00 95.00
177 65.00 105.00
178 65.00 115.00
179 65.00 125.00
180 65.00 125.00
181 65.00 135.00
